Route #1: 10
Route #2: 59 42 35 99 49 79 47 109 18 93 3 32 15
Route #3: 6 5 16
Route #4: 104 41 91 2 25 51 19 108 48 60 86 87 73 106 66 17 89
Route #5: 72 102 24 71 76 55 80 97 38 77 58 113 12 45 96 22 23 65 36
Route #6: 69 103 61 33 81 11 31 56 70 13
Route #7: 64 63 7 1 74 85
Route #8: 46 26 34 98 37 90 39 67 40 43 68 14 8 83 75 84 112 110 111
Route #9: 52 21 82 88 105 27 44 30 114 54 9 78 53 29 50
Route #10: 95 107 57 92 4 101 20 94 62 100 28
Cost 12747
